(set-logic ALL)
(declare-fun var0 () String)
(assert (str.in_re var0 (re.++ (re.+ (re.union (str.to_re "0") (str.to_re "11"))) (re.++ (re.* (re.union (str.to_re "22") (str.to_re "33"))) (re.++ (re.union (re.+ (str.to_re "4")) (re.+ (str.to_re "555"))) (re.++ (re.+ (re.+ (str.to_re "6"))) (re.++ (re.* (re.union (str.to_re "777") (str.to_re "8"))) (re.++ (re.union (re.* (str.to_re "9")) (re.* (str.to_re "a"))) (re.++ (re.* (re.* (str.to_re "b"))) (re.++ (re.+ (re.* (str.to_re "c"))) (re.++ (re.+ (re.* (str.to_re "dd"))) (re.++ (re.+ (re.union (str.to_re "e") (str.to_re "fff"))) (re.++ (re.union (re.+ (str.to_re "g")) (re.+ (str.to_re "hhh"))) (re.++ (re.+ (re.union (str.to_re "ii") (str.to_re "jj"))) (re.union (re.union (str.to_re "kk") (str.to_re "l")) (re.union (str.to_re "mmm") (str.to_re "n")))))))))))))))))
(check-sat)